100
120
100
100
98
98
97
97
97
95
93
93
89
89
88
87
86
84
83
82
81
80
79
79
79
77
75
73
73
72
72
71
71
71
69
68
68
67
67
66
65
65
64
63
60
59
59
58
58
57
57
56
56
55
55
55
55
54
54
54
53
51
51
50
50
50
48
47
47
47
47
46
46
45
44
43
41
41
40
40
39
37
36
32
32
31
29
28
27
27
27
27
26
25
25
25
25
24
24
22
21
20
